(set-info :smt-lib-version 2.6)
(set-logic QF_FP)
(set-info :source |
Generated by: Chenqi Cui
Generated on: 2025-12-07
Generator: AutoSMTGen
Application: Generating SMT constraints with small solution spaces to make them challenging for SMT solvers
Target solver: Z3, CVC5, Bitwuzla
|)
(set-info :license "https://creativecommons.org/licenses/by/4.0/")
(set-info :category "industrial")
(set-info :status sat)
; benchmark generated from python API

(declare-fun x10 () (_ FloatingPoint 11 53))
(declare-fun x9 () (_ FloatingPoint 11 53))
(declare-fun x8 () (_ FloatingPoint 11 53))
(declare-fun x7 () (_ FloatingPoint 11 53))
(declare-fun x6 () (_ FloatingPoint 11 53))
(declare-fun x5 () (_ FloatingPoint 11 53))
(declare-fun x4 () (_ FloatingPoint 11 53))
(declare-fun x3 () (_ FloatingPoint 11 53))
(declare-fun x2 () (_ FloatingPoint 11 53))
(declare-fun x1 () (_ FloatingPoint 11 53))
(declare-fun x0 () (_ FloatingPoint 11 53))
(assert
 (let ((?x21 (fp.add roundNearestTiesToEven (fp.mul roundNearestTiesToEven (fp #b1 #b10000000100 #x0196ebb261759) x0) (fp.mul roundNearestTiesToEven (fp #b0 #b10000000101 #x096706d33706b) x1))))
 (let ((?x24 (fp.add roundNearestTiesToEven ?x21 (fp.mul roundNearestTiesToEven (fp #b0 #b10000000101 #x4e6e9a4461498) x2))))
 (let ((?x27 (fp.add roundNearestTiesToEven ?x24 (fp.mul roundNearestTiesToEven (fp #b0 #b10000000100 #xb9e0b568e566a) x3))))
 (let ((?x30 (fp.add roundNearestTiesToEven ?x27 (fp.mul roundNearestTiesToEven (fp #b1 #b10000000101 #x7548876b3949c) x4))))
 (let ((?x33 (fp.add roundNearestTiesToEven ?x30 (fp.mul roundNearestTiesToEven (fp #b1 #b10000000101 #x1e1269abdd6e5) x5))))
 (let ((?x36 (fp.add roundNearestTiesToEven ?x33 (fp.mul roundNearestTiesToEven (fp #b1 #b10000000101 #x0a96451ce350b) x6))))
 (let ((?x39 (fp.add roundNearestTiesToEven ?x36 (fp.mul roundNearestTiesToEven (fp #b1 #b10000000010 #xe0857b13b2656) x7))))
 (let ((?x42 (fp.add roundNearestTiesToEven ?x39 (fp.mul roundNearestTiesToEven (fp #b0 #b10000000101 #xb95e30e4de52b) x8))))
 (let ((?x45 (fp.add roundNearestTiesToEven ?x42 (fp.mul roundNearestTiesToEven (fp #b1 #b10000000101 #x79bd10926eedf) x9))))
 (let ((?x48 (fp.add roundNearestTiesToEven ?x45 (fp.mul roundNearestTiesToEven (fp #b1 #b10000000101 #x238b377e6b3ca) x10))))
 (fp.leq ?x48 (fp #b0 #b10000000101 #x66bf9db47f29f)))))))))))))
(assert
 (let ((?x72 (fp.add roundNearestTiesToEven (fp.mul roundNearestTiesToEven (fp #b1 #b10000000101 #x5b75f6557477c) x0) (fp.mul roundNearestTiesToEven (fp #b0 #b10000000100 #x754e469107d5c) x1))))
 (let ((?x75 (fp.add roundNearestTiesToEven ?x72 (fp.mul roundNearestTiesToEven (fp #b0 #b10000000000 #xd147de2676ae8) x2))))
 (let ((?x78 (fp.add roundNearestTiesToEven ?x75 (fp.mul roundNearestTiesToEven (fp #b0 #b10000000100 #xb18888162a9a2) x3))))
 (let ((?x81 (fp.add roundNearestTiesToEven ?x78 (fp.mul roundNearestTiesToEven (fp #b1 #b10000000011 #xea68b17b07d61) x4))))
 (let ((?x84 (fp.add roundNearestTiesToEven ?x81 (fp.mul roundNearestTiesToEven (fp #b0 #b10000000100 #xb76e16107aabd) x5))))
 (let ((?x87 (fp.add roundNearestTiesToEven ?x84 (fp.mul roundNearestTiesToEven (fp #b0 #b10000000101 #x243ffdb9e2984) x6))))
 (let ((?x90 (fp.add roundNearestTiesToEven ?x87 (fp.mul roundNearestTiesToEven (fp #b1 #b10000000000 #x4d8109792f17a) x7))))
 (let ((?x93 (fp.add roundNearestTiesToEven ?x90 (fp.mul roundNearestTiesToEven (fp #b1 #b10000000100 #xc69a77151a9fc) x8))))
 (let ((?x96 (fp.add roundNearestTiesToEven ?x93 (fp.mul roundNearestTiesToEven (fp #b1 #b10000000000 #xf6176c8b13dcc) x9))))
 (let ((?x99 (fp.add roundNearestTiesToEven ?x96 (fp.mul roundNearestTiesToEven (fp #b0 #b10000000001 #xa151eb0ab8cb6) x10))))
 (fp.leq ?x99 (fp #b1 #b10000000100 #xcd9c846105fd0)))))))))))))
(assert
 (let ((?x106 (fp.add roundNearestTiesToEven (fp.mul roundNearestTiesToEven (fp #b0 #b10000000100 #x53b5476fdd3c5) x0) (fp.mul roundNearestTiesToEven (fp #b0 #b01111111110 #x69902719c2710) x1))))
 (let ((?x109 (fp.add roundNearestTiesToEven ?x106 (fp.mul roundNearestTiesToEven (fp #b1 #b10000000101 #x51cf433481bfb) x2))))
 (let ((?x112 (fp.add roundNearestTiesToEven ?x109 (fp.mul roundNearestTiesToEven (fp #b1 #b10000000000 #x9def3cbec570b) x3))))
 (let ((?x115 (fp.add roundNearestTiesToEven ?x112 (fp.mul roundNearestTiesToEven (fp #b1 #b10000000100 #xd2c498d848614) x4))))
 (let ((?x118 (fp.add roundNearestTiesToEven ?x115 (fp.mul roundNearestTiesToEven (fp #b0 #b10000000100 #x160ce5da320ba) x5))))
 (let ((?x121 (fp.add roundNearestTiesToEven ?x118 (fp.mul roundNearestTiesToEven (fp #b0 #b10000000011 #x561e642066f9c) x6))))
 (let ((?x124 (fp.add roundNearestTiesToEven ?x121 (fp.mul roundNearestTiesToEven (fp #b0 #b10000000101 #x857cefc40fc51) x7))))
 (let ((?x127 (fp.add roundNearestTiesToEven ?x124 (fp.mul roundNearestTiesToEven (fp #b1 #b10000000011 #x7140f4f49b812) x8))))
 (let ((?x130 (fp.add roundNearestTiesToEven ?x127 (fp.mul roundNearestTiesToEven (fp #b0 #b10000000100 #x47a80b805a051) x9))))
 (let ((?x133 (fp.add roundNearestTiesToEven ?x130 (fp.mul roundNearestTiesToEven (fp #b0 #b10000000101 #x2bde01df3e17f) x10))))
 (fp.leq ?x133 (fp #b0 #b10000000011 #x578ebe5228118)))))))))))))
(assert
 (let ((?x140 (fp.add roundNearestTiesToEven (fp.mul roundNearestTiesToEven (fp #b1 #b10000000101 #x7ad04a6e961f5) x0) (fp.mul roundNearestTiesToEven (fp #b0 #b10000000010 #x852827d58c01d) x1))))
 (let ((?x143 (fp.add roundNearestTiesToEven ?x140 (fp.mul roundNearestTiesToEven (fp #b0 #b10000000011 #xd1f5a7b16e184) x2))))
 (let ((?x146 (fp.add roundNearestTiesToEven ?x143 (fp.mul roundNearestTiesToEven (fp #b1 #b10000000101 #x48102dd903cbd) x3))))
 (let ((?x149 (fp.add roundNearestTiesToEven ?x146 (fp.mul roundNearestTiesToEven (fp #b0 #b10000000101 #x20892c39f6771) x4))))
 (let ((?x152 (fp.add roundNearestTiesToEven ?x149 (fp.mul roundNearestTiesToEven (fp #b0 #b10000000010 #xa67a4dafb9732) x5))))
 (let ((?x155 (fp.add roundNearestTiesToEven ?x152 (fp.mul roundNearestTiesToEven (fp #b0 #b10000000101 #x65bd068b1668b) x6))))
 (let ((?x158 (fp.add roundNearestTiesToEven ?x155 (fp.mul roundNearestTiesToEven (fp #b0 #b10000000101 #x1bd15be7288ef) x7))))
 (let ((?x161 (fp.add roundNearestTiesToEven ?x158 (fp.mul roundNearestTiesToEven (fp #b0 #b10000000101 #x75ff45641270c) x8))))
 (let ((?x164 (fp.add roundNearestTiesToEven ?x161 (fp.mul roundNearestTiesToEven (fp #b1 #b10000000100 #x4e182ea42f3f6) x9))))
 (let ((?x167 (fp.add roundNearestTiesToEven ?x164 (fp.mul roundNearestTiesToEven (fp #b0 #b10000000010 #x05b39df7c61f2) x10))))
 (fp.leq ?x167 (fp #b0 #b10000000010 #x2fb56865bb4f3)))))))))))))
(assert
 (let ((?x174 (fp.add roundNearestTiesToEven (fp.mul roundNearestTiesToEven (fp #b0 #b10000000011 #x61c36c15dd959) x0) (fp.mul roundNearestTiesToEven (fp #b0 #b01111111111 #xaaa6d632b31d9) x1))))
 (let ((?x177 (fp.add roundNearestTiesToEven ?x174 (fp.mul roundNearestTiesToEven (fp #b0 #b10000000101 #x4381d6671e1df) x2))))
 (let ((?x180 (fp.add roundNearestTiesToEven ?x177 (fp.mul roundNearestTiesToEven (fp #b1 #b10000000101 #x5dd9aa633e8eb) x3))))
 (let ((?x183 (fp.add roundNearestTiesToEven ?x180 (fp.mul roundNearestTiesToEven (fp #b1 #b10000000101 #x63124234ff82a) x4))))
 (let ((?x186 (fp.add roundNearestTiesToEven ?x183 (fp.mul roundNearestTiesToEven (fp #b0 #b10000000100 #xb0107c80491c0) x5))))
 (let ((?x189 (fp.add roundNearestTiesToEven ?x186 (fp.mul roundNearestTiesToEven (fp #b1 #b10000000100 #x5332eae36c73e) x6))))
 (let ((?x192 (fp.add roundNearestTiesToEven ?x189 (fp.mul roundNearestTiesToEven (fp #b1 #b10000000101 #x25d3d8a9972c3) x7))))
 (let ((?x195 (fp.add roundNearestTiesToEven ?x192 (fp.mul roundNearestTiesToEven (fp #b1 #b10000000100 #xf60685131974b) x8))))
 (let ((?x198 (fp.add roundNearestTiesToEven ?x195 (fp.mul roundNearestTiesToEven (fp #b1 #b10000000101 #x40d8eb7758e9c) x9))))
 (let ((?x201 (fp.add roundNearestTiesToEven ?x198 (fp.mul roundNearestTiesToEven (fp #b0 #b10000000101 #x4185199858e68) x10))))
 (fp.leq ?x201 (fp #b1 #b10000000011 #xf854d8932ed79)))))))))))))
(assert
 (let ((?x208 (fp.add roundNearestTiesToEven (fp.mul roundNearestTiesToEven (fp #b1 #b10000000101 #x5ec7a8fa44f8e) x0) (fp.mul roundNearestTiesToEven (fp #b1 #b10000000101 #x342373945f757) x1))))
 (let ((?x211 (fp.add roundNearestTiesToEven ?x208 (fp.mul roundNearestTiesToEven (fp #b0 #b10000000100 #xdf9ea8b8a15db) x2))))
 (let ((?x214 (fp.add roundNearestTiesToEven ?x211 (fp.mul roundNearestTiesToEven (fp #b1 #b10000000101 #x17ed3e590d2da) x3))))
 (let ((?x217 (fp.add roundNearestTiesToEven ?x214 (fp.mul roundNearestTiesToEven (fp #b1 #b10000000001 #x122adea0f4ba6) x4))))
 (let ((?x220 (fp.add roundNearestTiesToEven ?x217 (fp.mul roundNearestTiesToEven (fp #b1 #b10000000101 #x3151e3e12e886) x5))))
 (let ((?x223 (fp.add roundNearestTiesToEven ?x220 (fp.mul roundNearestTiesToEven (fp #b1 #b10000000011 #x329f66c76c643) x6))))
 (let ((?x226 (fp.add roundNearestTiesToEven ?x223 (fp.mul roundNearestTiesToEven (fp #b0 #b10000000100 #x5505853656047) x7))))
 (let ((?x229 (fp.add roundNearestTiesToEven ?x226 (fp.mul roundNearestTiesToEven (fp #b1 #b10000000011 #xa22ba59575233) x8))))
 (let ((?x232 (fp.add roundNearestTiesToEven ?x229 (fp.mul roundNearestTiesToEven (fp #b0 #b10000000100 #x6575df45936f5) x9))))
 (let ((?x235 (fp.add roundNearestTiesToEven ?x232 (fp.mul roundNearestTiesToEven (fp #b0 #b10000000100 #x3c147f5d5e02e) x10))))
 (fp.leq ?x235 (fp #b1 #b10000000001 #x6782df3ca4559)))))))))))))
(assert
 (let ((?x242 (fp.add roundNearestTiesToEven (fp.mul roundNearestTiesToEven (fp #b0 #b10000000011 #xc9d6dc9fe1f46) x0) (fp.mul roundNearestTiesToEven (fp #b0 #b10000000101 #x749fbc48eae5e) x1))))
 (let ((?x245 (fp.add roundNearestTiesToEven ?x242 (fp.mul roundNearestTiesToEven (fp #b0 #b10000000100 #x9bc13b02765ee) x2))))
 (let ((?x248 (fp.add roundNearestTiesToEven ?x245 (fp.mul roundNearestTiesToEven (fp #b0 #b10000000100 #x659b6eb157ae1) x3))))
 (let ((?x251 (fp.add roundNearestTiesToEven ?x248 (fp.mul roundNearestTiesToEven (fp #b1 #b10000000100 #x1028f9b9969f3) x4))))
 (let ((?x254 (fp.add roundNearestTiesToEven ?x251 (fp.mul roundNearestTiesToEven (fp #b0 #b10000000101 #x14e1b4375b0ae) x5))))
 (let ((?x257 (fp.add roundNearestTiesToEven ?x254 (fp.mul roundNearestTiesToEven (fp #b1 #b10000000100 #xd20f3a68d4577) x6))))
 (let ((?x260 (fp.add roundNearestTiesToEven ?x257 (fp.mul roundNearestTiesToEven (fp #b1 #b10000000010 #xac377a51d31fa) x7))))
 (let ((?x263 (fp.add roundNearestTiesToEven ?x260 (fp.mul roundNearestTiesToEven (fp #b0 #b10000000101 #x7b29b6a058cb1) x8))))
 (let ((?x266 (fp.add roundNearestTiesToEven ?x263 (fp.mul roundNearestTiesToEven (fp #b0 #b10000000100 #x456599fc84c31) x9))))
 (let ((?x269 (fp.add roundNearestTiesToEven ?x266 (fp.mul roundNearestTiesToEven (fp #b0 #b10000000100 #xc5eeec40cc307) x10))))
 (fp.leq ?x269 (fp #b0 #b10000000011 #x52d60f3852636)))))))))))))
(assert
 (let ((?x276 (fp.add roundNearestTiesToEven (fp.mul roundNearestTiesToEven (fp #b1 #b10000000011 #x4e18c53079403) x0) (fp.mul roundNearestTiesToEven (fp #b0 #b10000000101 #x229da684f850d) x1))))
 (let ((?x279 (fp.add roundNearestTiesToEven ?x276 (fp.mul roundNearestTiesToEven (fp #b0 #b10000000100 #x7d76d639258ac) x2))))
 (let ((?x282 (fp.add roundNearestTiesToEven ?x279 (fp.mul roundNearestTiesToEven (fp #b1 #b10000000100 #x57e813db08890) x3))))
 (let ((?x285 (fp.add roundNearestTiesToEven ?x282 (fp.mul roundNearestTiesToEven (fp #b0 #b10000000000 #xca737abcc5889) x4))))
 (let ((?x288 (fp.add roundNearestTiesToEven ?x285 (fp.mul roundNearestTiesToEven (fp #b1 #b10000000100 #xcf211ea0c0154) x5))))
 (let ((?x291 (fp.add roundNearestTiesToEven ?x288 (fp.mul roundNearestTiesToEven (fp #b1 #b10000000101 #x1c03153c13c14) x6))))
 (let ((?x294 (fp.add roundNearestTiesToEven ?x291 (fp.mul roundNearestTiesToEven (fp #b0 #b10000000011 #x1286db82cd261) x7))))
 (let ((?x297 (fp.add roundNearestTiesToEven ?x294 (fp.mul roundNearestTiesToEven (fp #b1 #b10000000101 #x70e876910baae) x8))))
 (let ((?x300 (fp.add roundNearestTiesToEven ?x297 (fp.mul roundNearestTiesToEven (fp #b0 #b10000000011 #x0ac0ee21244be) x9))))
 (let ((?x303 (fp.add roundNearestTiesToEven ?x300 (fp.mul roundNearestTiesToEven (fp #b0 #b10000000101 #x00640a483e54b) x10))))
 (fp.leq ?x303 (fp #b0 #b10000000100 #x3680988b30f02)))))))))))))
(assert
 (let ((?x310 (fp.add roundNearestTiesToEven (fp.mul roundNearestTiesToEven (fp #b0 #b10000000101 #x4d781fc1cb7d7) x0) (fp.mul roundNearestTiesToEven (fp #b0 #b10000000100 #x831ce7828503b) x1))))
 (let ((?x313 (fp.add roundNearestTiesToEven ?x310 (fp.mul roundNearestTiesToEven (fp #b0 #b10000000100 #xda279be57e74f) x2))))
 (let ((?x316 (fp.add roundNearestTiesToEven ?x313 (fp.mul roundNearestTiesToEven (fp #b1 #b10000000100 #x89005953ae50c) x3))))
 (let ((?x319 (fp.add roundNearestTiesToEven ?x316 (fp.mul roundNearestTiesToEven (fp #b0 #b10000000001 #x2a1de0737c664) x4))))
 (let ((?x322 (fp.add roundNearestTiesToEven ?x319 (fp.mul roundNearestTiesToEven (fp #b0 #b01111111111 #x18111aa17cba4) x5))))
 (let ((?x325 (fp.add roundNearestTiesToEven ?x322 (fp.mul roundNearestTiesToEven (fp #b0 #b10000000101 #x2183fa6be9f65) x6))))
 (let ((?x328 (fp.add roundNearestTiesToEven ?x325 (fp.mul roundNearestTiesToEven (fp #b0 #b10000000100 #xee522e9bf6d17) x7))))
 (let ((?x331 (fp.add roundNearestTiesToEven ?x328 (fp.mul roundNearestTiesToEven (fp #b0 #b10000000101 #x8ecf49178eb8e) x8))))
 (let ((?x334 (fp.add roundNearestTiesToEven ?x331 (fp.mul roundNearestTiesToEven (fp #b0 #b10000000101 #x4b013bc211834) x9))))
 (let ((?x337 (fp.add roundNearestTiesToEven ?x334 (fp.mul roundNearestTiesToEven (fp #b1 #b10000000000 #x3d7452588e5ad) x10))))
 (fp.leq ?x337 (fp #b0 #b10000000101 #x64ac306554704)))))))))))))
(assert
 (let ((?x344 (fp.add roundNearestTiesToEven (fp.mul roundNearestTiesToEven (fp #b0 #b10000000001 #x4037a9b3bd80e) x0) (fp.mul roundNearestTiesToEven (fp #b1 #b10000000010 #x885520f3e5053) x1))))
 (let ((?x347 (fp.add roundNearestTiesToEven ?x344 (fp.mul roundNearestTiesToEven (fp #b0 #b10000000101 #x3b7932df19737) x2))))
 (let ((?x350 (fp.add roundNearestTiesToEven ?x347 (fp.mul roundNearestTiesToEven (fp #b0 #b10000000101 #x3e087dc28fd5c) x3))))
 (let ((?x353 (fp.add roundNearestTiesToEven ?x350 (fp.mul roundNearestTiesToEven (fp #b1 #b10000000101 #x25f6f56a5540c) x4))))
 (let ((?x356 (fp.add roundNearestTiesToEven ?x353 (fp.mul roundNearestTiesToEven (fp #b1 #b10000000100 #xa9c539ad3fafe) x5))))
 (let ((?x359 (fp.add roundNearestTiesToEven ?x356 (fp.mul roundNearestTiesToEven (fp #b0 #b10000000010 #x199275c2e0997) x6))))
 (let ((?x362 (fp.add roundNearestTiesToEven ?x359 (fp.mul roundNearestTiesToEven (fp #b0 #b01111111001 #xf9d9b50656a67) x7))))
 (let ((?x365 (fp.add roundNearestTiesToEven ?x362 (fp.mul roundNearestTiesToEven (fp #b1 #b10000000100 #x358ff5f70021f) x8))))
 (let ((?x368 (fp.add roundNearestTiesToEven ?x365 (fp.mul roundNearestTiesToEven (fp #b1 #b10000000101 #x353977f87c896) x9))))
 (let ((?x371 (fp.add roundNearestTiesToEven ?x368 (fp.mul roundNearestTiesToEven (fp #b1 #b10000000011 #xc3dfd2f1e1854) x10))))
 (fp.leq ?x371 (fp #b0 #b10000000100 #xc9184013de108)))))))))))))
(assert
 (let ((?x378 (fp.add roundNearestTiesToEven (fp.mul roundNearestTiesToEven (fp #b0 #b10000000101 #x554f6ba8b977a) x0) (fp.mul roundNearestTiesToEven (fp #b0 #b10000000011 #xdfed08892809e) x1))))
 (let ((?x381 (fp.add roundNearestTiesToEven ?x378 (fp.mul roundNearestTiesToEven (fp #b0 #b10000000100 #xe562877a617e3) x2))))
 (let ((?x384 (fp.add roundNearestTiesToEven ?x381 (fp.mul roundNearestTiesToEven (fp #b1 #b10000000010 #x1606c77db7074) x3))))
 (let ((?x387 (fp.add roundNearestTiesToEven ?x384 (fp.mul roundNearestTiesToEven (fp #b0 #b10000000101 #x67e98348452e7) x4))))
 (let ((?x390 (fp.add roundNearestTiesToEven ?x387 (fp.mul roundNearestTiesToEven (fp #b1 #b10000000100 #x49ee1c71e6f12) x5))))
 (let ((?x393 (fp.add roundNearestTiesToEven ?x390 (fp.mul roundNearestTiesToEven (fp #b0 #b10000000101 #x4e04da13b4596) x6))))
 (let ((?x396 (fp.add roundNearestTiesToEven ?x393 (fp.mul roundNearestTiesToEven (fp #b1 #b10000000100 #xe82063b3aaa0c) x7))))
 (let ((?x399 (fp.add roundNearestTiesToEven ?x396 (fp.mul roundNearestTiesToEven (fp #b1 #b10000000100 #xe40910aa45673) x8))))
 (let ((?x402 (fp.add roundNearestTiesToEven ?x399 (fp.mul roundNearestTiesToEven (fp #b0 #b10000000101 #x0523c6f944f9f) x9))))
 (let ((?x405 (fp.add roundNearestTiesToEven ?x402 (fp.mul roundNearestTiesToEven (fp #b1 #b10000000101 #x534baa042f1a5) x10))))
 (fp.leq ?x405 (fp #b0 #b10000000101 #x463baaefe4e7d)))))))))))))
(assert
 (let ((?x412 (fp.add roundNearestTiesToEven (fp.mul roundNearestTiesToEven (fp #b0 #b10000000101 #x480b4fc002383) x0) (fp.mul roundNearestTiesToEven (fp #b1 #b10000000100 #x28828d358c3f8) x1))))
 (let ((?x415 (fp.add roundNearestTiesToEven ?x412 (fp.mul roundNearestTiesToEven (fp #b1 #b10000000101 #x80037aa8ed2b6) x2))))
 (let ((?x418 (fp.add roundNearestTiesToEven ?x415 (fp.mul roundNearestTiesToEven (fp #b1 #b10000000101 #x1721f7792214d) x3))))
 (let ((?x421 (fp.add roundNearestTiesToEven ?x418 (fp.mul roundNearestTiesToEven (fp #b0 #b10000000100 #xf7fa2bfee915a) x4))))
 (let ((?x424 (fp.add roundNearestTiesToEven ?x421 (fp.mul roundNearestTiesToEven (fp #b0 #b10000000101 #x891a3f5ef2200) x5))))
 (let ((?x427 (fp.add roundNearestTiesToEven ?x424 (fp.mul roundNearestTiesToEven (fp #b0 #b10000000100 #x185dd315ccf2a) x6))))
 (let ((?x430 (fp.add roundNearestTiesToEven ?x427 (fp.mul roundNearestTiesToEven (fp #b0 #b10000000101 #x28ea3d8b592e3) x7))))
 (let ((?x433 (fp.add roundNearestTiesToEven ?x430 (fp.mul roundNearestTiesToEven (fp #b1 #b10000000101 #x28b14fdfc62c0) x8))))
 (let ((?x436 (fp.add roundNearestTiesToEven ?x433 (fp.mul roundNearestTiesToEven (fp #b0 #b10000000011 #x051280364d3cb) x9))))
 (let ((?x439 (fp.add roundNearestTiesToEven ?x436 (fp.mul roundNearestTiesToEven (fp #b1 #b10000000000 #xc3532c34f0d58) x10))))
 (fp.leq ?x439 (fp #b1 #b10000000100 #xe9bc908767e6a)))))))))))))
(assert
 (let ((?x446 (fp.add roundNearestTiesToEven (fp.mul roundNearestTiesToEven (fp #b1 #b10000000100 #x44d530632da81) x0) (fp.mul roundNearestTiesToEven (fp #b1 #b10000000011 #xe5b07260bd592) x1))))
 (let ((?x449 (fp.add roundNearestTiesToEven ?x446 (fp.mul roundNearestTiesToEven (fp #b1 #b10000000100 #xc65e899f2e50d) x2))))
 (let ((?x452 (fp.add roundNearestTiesToEven ?x449 (fp.mul roundNearestTiesToEven (fp #b1 #b10000000101 #x0a0898d35d22f) x3))))
 (let ((?x455 (fp.add roundNearestTiesToEven ?x452 (fp.mul roundNearestTiesToEven (fp #b0 #b10000000010 #xed351e408d463) x4))))
 (let ((?x458 (fp.add roundNearestTiesToEven ?x455 (fp.mul roundNearestTiesToEven (fp #b0 #b10000000100 #x4bb8ab4ec3713) x5))))
 (let ((?x461 (fp.add roundNearestTiesToEven ?x458 (fp.mul roundNearestTiesToEven (fp #b0 #b10000000101 #x2ef51dc1afac8) x6))))
 (let ((?x464 (fp.add roundNearestTiesToEven ?x461 (fp.mul roundNearestTiesToEven (fp #b1 #b10000000011 #xf06ac8ebe7f3d) x7))))
 (let ((?x467 (fp.add roundNearestTiesToEven ?x464 (fp.mul roundNearestTiesToEven (fp #b0 #b01111111111 #xa351f9c8cfdda) x8))))
 (let ((?x470 (fp.add roundNearestTiesToEven ?x467 (fp.mul roundNearestTiesToEven (fp #b0 #b10000000001 #x405c7422207cc) x9))))
 (let ((?x473 (fp.add roundNearestTiesToEven ?x470 (fp.mul roundNearestTiesToEven (fp #b1 #b10000000100 #x5b89445733c2e) x10))))
 (fp.leq ?x473 (fp #b1 #b10000000011 #x98e38eb51eed2)))))))))))))
(assert
 (let ((?x480 (fp.add roundNearestTiesToEven (fp.mul roundNearestTiesToEven (fp #b1 #b10000000100 #xc337a5c3c61ce) x0) (fp.mul roundNearestTiesToEven (fp #b1 #b10000000100 #x0f8648e66da52) x1))))
(let ((?x483 (fp.add roundNearestTiesToEven ?x480 (fp.mul roundNearestTiesToEven (fp #b1 #b10000000100 #x06501d1ba15b1) x2))))
(let ((?x486 (fp.add roundNearestTiesToEven ?x483 (fp.mul roundNearestTiesToEven (fp #b0 #b10000000101 #x827c37e23331a) x3))))
(let ((?x489 (fp.add roundNearestTiesToEven ?x486 (fp.mul roundNearestTiesToEven (fp #b0 #b10000000010 #x0f6073f77f918) x4))))
(let ((?x492 (fp.add roundNearestTiesToEven ?x489 (fp.mul roundNearestTiesToEven (fp #b1 #b10000000101 #x203f6fbb5ab32) x5))))
(let ((?x495 (fp.add roundNearestTiesToEven ?x492 (fp.mul roundNearestTiesToEven (fp #b0 #b10000000000 #x12306c5342db0) x6))))
(let ((?x498 (fp.add roundNearestTiesToEven ?x495 (fp.mul roundNearestTiesToEven (fp #b1 #b10000000101 #x4e7d4140e94fb) x7))))
(let ((?x501 (fp.add roundNearestTiesToEven ?x498 (fp.mul roundNearestTiesToEven (fp #b1 #b10000000011 #x5521b302974d7) x8))))
(let ((?x504 (fp.add roundNearestTiesToEven ?x501 (fp.mul roundNearestTiesToEven (fp #b1 #b10000000100 #xd8a20c28e7ae0) x9))))
(let ((?x507 (fp.add roundNearestTiesToEven ?x504 (fp.mul roundNearestTiesToEven (fp #b1 #b10000000000 #x746a493b012e9) x10))))
(fp.leq ?x507 (fp #b0 #b10000000101 #x0a0e4de3c76d9)))))))))))))
(check-sat)
(exit)
